Input: forum-14.prec25.dzn
============================================================
Total Runtime: 4.4395 seconds
Input parsing: 0.0010 seconds
Constraint building: 1.0106 seconds
MaxSAT solving: 2.7616 seconds
============================================================

Total variables: 324136
Total clauses: 682756
MaxSAT found with cost: 0
NO SOLUTION FOUND
